Maximize
  - 39 x0 - 45 x1 - 2 x2 - x3 - 45 x4 - 34 x5 - 18 x6 + 20 x7 + 16 x8
   - 42 x9 - 20 x10 + 0 x11 - 38 x12 + 35 x13 + 2 x14 - 42 x15 - 17 x16
   + 40 x17 + 23 x18 + 47 x19 + [ - 25 x0 ^2 - 80 x0 * x1 - 66 x0 * x2
   + 50 x0 * x3 - 94 x0 * x4 - 84 x0 * x5 + 66 x0 * x6 - 50 x0 * x7
   - 28 x0 * x8 + 34 x0 * x9 - 14 x0 * x10 - 88 x0 * x11 - 42 x0 * x12
   + 46 x0 * x13 + 78 x0 * x14 - 32 x0 * x15 + 14 x0 * x16 + 42 x0 * x17
   + 96 x0 * x18 + 74 x0 * x19 + 3 x1 ^2 - 34 x1 * x2 - 14 x1 * x3
   + 48 x1 * x4 - 82 x1 * x5 + 44 x1 * x7 - 44 x1 * x8 - 18 x1 * x9
   - 12 x1 * x10 + 26 x1 * x11 + 2 x1 * x13 + 70 x1 * x14 - 32 x1 * x15
   - 50 x1 * x16 - 10 x1 * x17 + 94 x1 * x18 - 96 x1 * x19 + 9 x2 ^2
   + 44 x2 * x3 - 2 x2 * x4 - 94 x2 * x5 - 42 x2 * x6 + 64 x2 * x7
   - 98 x2 * x8 + 10 x2 * x9 + 20 x2 * x10 + 54 x2 * x11 + 44 x2 * x12
   - 42 x2 * x13 - 24 x2 * x14 - 84 x2 * x15 + 4 x2 * x16 + 26 x2 * x17
   + 70 x2 * x18 - 94 x2 * x19 - 4 x3 ^2 + 98 x3 * x4 + 42 x3 * x5
   + 78 x3 * x6 + 42 x3 * x7 + 32 x3 * x8 - 50 x3 * x9 + 82 x3 * x10
   - 22 x3 * x11 - 92 x3 * x12 - 48 x3 * x13 - 36 x3 * x14 + 62 x3 * x15
   - 26 x3 * x16 - 34 x3 * x17 + 14 x3 * x18 + 54 x3 * x19 - 37 x4 ^2
   + 30 x4 * x5 + 82 x4 * x6 - 22 x4 * x7 - 22 x4 * x8 - 54 x4 * x9
   - 20 x4 * x10 + 12 x4 * x11 - 70 x4 * x12 + 70 x4 * x13 - 88 x4 * x14
   - 12 x4 * x16 + 38 x4 * x17 - 38 x4 * x18 + 56 x4 * x19 - 2 x5 ^2
   - 96 x5 * x6 + 14 x5 * x7 - 54 x5 * x8 - 4 x5 * x9 - 72 x5 * x10
   + 70 x5 * x11 + 8 x5 * x12 + 42 x5 * x13 + 92 x5 * x14 - 52 x5 * x15
   - 76 x5 * x16 + 88 x5 * x17 + 2 x5 * x18 + 30 x5 * x19 - 41 x6 ^2
   + 30 x6 * x7 - 32 x6 * x8 - 58 x6 * x9 + 84 x6 * x10 + 46 x6 * x11
   + 70 x6 * x12 - 40 x6 * x13 + 80 x6 * x14 + 12 x6 * x15 + 46 x6 * x16
   - 98 x6 * x17 + 18 x6 * x18 + 92 x6 * x19 + 36 x7 ^2 - 88 x7 * x8
   + 36 x7 * x9 - 6 x7 * x10 + 40 x7 * x11 + 48 x7 * x12 + 66 x7 * x13
   + 94 x7 * x14 - 46 x7 * x15 + 80 x7 * x16 + 94 x7 * x17 - 50 x7 * x18
   - 24 x7 * x19 - 34 x8 ^2 - 50 x8 * x9 - 10 x8 * x10 + 76 x8 * x11
   + 82 x8 * x12 + 78 x8 * x13 + 66 x8 * x14 - 94 x8 * x15 + 62 x8 * x16
   - 76 x8 * x17 + 46 x8 * x18 + 24 x8 * x19 - 16 x9 ^2 - 76 x9 * x10
   - 72 x9 * x11 + 24 x9 * x12 + 82 x9 * x13 - 14 x9 * x14 + 46 x9 * x15
   - 92 x9 * x16 - 36 x9 * x17 - 96 x9 * x18 + 76 x9 * x19 - 8 x10 ^2
   + 10 x10 * x11 + 16 x10 * x12 - 78 x10 * x13 - 86 x10 * x14
   + 30 x10 * x15 + 68 x10 * x16 + 48 x10 * x17 + 10 x10 * x18
   - 38 x10 * x19 + 40 x11 ^2 + 60 x11 * x12 + 22 x11 * x13 + 72 x11 * x14
   + 18 x11 * x15 + 94 x11 * x16 + 50 x11 * x17 - 96 x11 * x18
   - 50 x11 * x19 + 12 x12 ^2 + 92 x12 * x14 - 56 x12 * x15 - 82 x12 * x16
   - 50 x12 * x17 + 16 x12 * x18 + 76 x12 * x19 + 11 x13 ^2 + 40 x13 * x14
   - 36 x13 * x15 + 50 x13 * x16 + 94 x13 * x17 - 76 x13 * x18
   + 26 x13 * x19 - 33 x14 ^2 + 80 x14 * x15 + 62 x14 * x16 + 64 x14 * x17
   + 18 x14 * x18 + 38 x14 * x19 + 27 x15 ^2 + 10 x15 * x16 + 74 x15 * x17
   - 72 x15 * x18 + 82 x15 * x19 - 11 x16 ^2 - 16 x16 * x17 - 90 x16 * x18
   - 8 x16 * x19 - 17 x17 ^2 + 56 x17 * x18 + 50 x17 * x19 + 20 x18 ^2
   + 36 x18 * x19 - 17 x19 ^2 ] / 2 
Subject To
Bounds
 x0 <= 1
 x1 <= 1
 x2 <= 1
 x3 <= 1
 x4 <= 1
 x5 <= 1
 x6 <= 1
 x7 <= 1
 x8 <= 1
 x9 <= 1
 x10 <= 1
 x11 <= 1
 x12 <= 1
 x13 <= 1
 x14 <= 1
 x15 <= 1
 x16 <= 1
 x17 <= 1
 x18 <= 1
 x19 <= 1
End
